50 14142
5139 190 5490 6015 8110 7465 10437 9046 8543 3785 8157 5447 9609 1 7302 3530 8476 5909 10023 1495 9357 4516 1025 5213 4147 1 956 7830 7976 363 2605 1499 6736 8327 4340 2462 1 1797 2231 1828 6375 3738 414 3931 2721 7446 3857 1430 5445 5851 
4486 586 6280 5337 8354 6936 9539 8954 7675 4696 7354 5017 9938 58 7851 3355 9139 6454 9519 1004 9139 5134 1498 5013 4883 110 872 8246 7068 685 2192 1834 5810 9211 3698 3415 50 2131 2762 893 7029 3144 764 4532 3101 7593 3432 880 4773 5646 
